\* EMD *\
Minimize
OBJ: 109.927248669 x0_0 + 97.2830920561 x0_1 + 352.90083593 x0_2
 + 211.955183942 x1_0 + 195.971936766 x1_1 + 348.09481467 x1_2
 + 244.180261283 x2_0 + 115.429632244 x2_1 + 254.909787964 x2_2
 + 141.435497666 x3_0 + 52 x3_1 + 334.752147118 x3_2
Subject To
_C1: x0_0 + x0_1 + x0_2 + x1_0 + x1_1 + x1_2 + x2_0 + x2_1 + x2_2 + x3_0
 + x3_1 + x3_2 = 1
_C2: x0_0 + x0_1 + x0_2 <= 0.4
_C3: x1_0 + x1_1 + x1_2 <= 0.3
_C4: x2_0 + x2_1 + x2_2 <= 0.2
_C5: x3_0 + x3_1 + x3_2 <= 0.1
_C6: x0_0 + x1_0 + x2_0 + x3_0 <= 0.5
_C7: x0_1 + x1_1 + x2_1 + x3_1 <= 0.3
_C8: x0_2 + x1_2 + x2_2 + x3_2 <= 0.2
End
